(set-logic SLIA)
(define-fun func0  ((A String) (B String) (C String) (D String) (E String) ) String (str.replace (str.replace C  D  E ) A  B ))
(define-fun func1  ((A String) (B String) (C String) (D String) ) String (str.replace A  B  (str.++ C  D )))
(define-fun func2  ((A String) (B String) (C String) ) String (str.++ A  (str.++ B  C )))
(define-fun func3  ((A String) (B String) (C String) (D String) ) String (str.++ A  (str.++ B  (str.++ C  D ))))
(define-fun func4  ((A String) (B String) (C String) (D Int) ) String (str.++ A  (str.++ (str.at C  D ) B )))
(define-fun func5  ((A String) (B String) (C Int) ) String (str.++ (str.at B  C ) A ))
(define-fun func6  ((A String) (B String) ) String (str.++ (str.at B  0 ) A ))
(define-fun func7  ((A String) (B String) (C String) (D String) (E Int) ) String (str.++ A  (str.++ B  (str.++ (str.at D  E ) C ))))
(define-fun func8  ((A String) (B String) (C String) (D String) (E String) ) String (str.++ A  (str.++ B  (str.++ C  (str.++ D  E )))))
(define-fun func9  ((A Int) ) Int (+ 1  A ))
(define-fun func10  ((A String) (B String) (C Int) ) Int (+ 1  (str.indexof A  B  C )))
(define-fun func11  ((A String) (B String) ) Int (+ 1  (str.indexof A  B  0 )))
(define-fun func12  ((A Int) (B Int) (C Int) ) Int (+ A  (+ B  C )))
(define-fun func13  ((A Int) ) Int (+ A  -1 ))
(define-fun func14  ((A Int) (B String) (C String) (D Int) ) Int (+ A  (str.indexof B  C  D )))
(define-fun func15  ((A Int) (B String) (C String) ) Int (+ A  (str.indexof B  C  1 )))
(define-fun func16  ((A Int) (B String) (C String) ) Int (+ A  (str.indexof B  C  0 )))
(define-fun func17  ((A Int) (B String) ) Int (- (str.len B ) A ))
(define-fun func18  ((A String) (B Int) (C String) (D Int) ) String (str.substr A  (+ 1  (str.indexof A  C  D )) B ))
(define-fun func19  ((A String) (B Int) (C String) ) String (str.substr A  (+ 1  (str.indexof A  C  0 )) B ))
(define-fun func20  ((A String) (B Int) (C String) (D String) (E Int) ) String (str.substr A  (+ 1  (str.indexof C  D  E )) B ))
(define-fun func21  ((A String) (B Int) (C String) (D String) ) String (str.substr A  (+ 1  (str.indexof C  D  0 )) B ))
(define-fun func22  ((A String) (B Int) (C Int) ) String (str.substr A  (+ 1  C ) B ))
(define-fun func23  ((A String) (B Int) (C Int) (D String) (E Int) ) String (str.substr A  (+ C  (str.indexof A  D  E )) B ))
(define-fun func24  ((A String) (B Int) (C Int) (D String) ) String (str.substr A  (+ C  (str.indexof A  D  0 )) B ))
(define-fun func25  ((A String) (B Int) (C Int) (D String) (E String) (F Int) ) String (str.substr A  (+ C  (str.indexof D  E  F )) B ))
(define-fun func26  ((A String) (B Int) (C Int) (D String) (E String) ) String (str.substr A  (+ C  (str.indexof D  E  0 )) B ))
(define-fun func27  ((A String) (B Int) (C Int) (D Int) ) String (str.substr A  (+ C  D ) B ))
(define-fun func28  ((A String) (B Int) (C Int) ) String (str.substr A  (+ B  C ) 3 ))
(define-fun func29  ((A String) (B Int) (C Int) ) String (str.substr A  (+ B  C ) (str.len A )))
(define-fun func30  ((A String) (B Int) ) String (str.substr A  0  B ))
(define-fun func31  ((A String) (B Int) (C Int) ) String (str.substr A  0  (+ B  C )))
(define-fun func32  ((A String) (B String) (C Int) ) String (str.substr A  0  (str.indexof A  B  C )))
(define-fun func33  ((A String) (B String) ) String (str.substr A  0  (str.indexof A  B  0 )))
(define-fun func34  ((A String) (B String) (C String) (D Int) ) String (str.substr A  0  (str.indexof B  C  D )))
(define-fun func35  ((A String) (B String) (C String) ) String (str.substr A  0  (str.indexof B  C  1 )))
(define-fun func36  ((A String) (B String) (C String) ) String (str.substr A  0  (str.indexof B  C  0 )))
(define-fun func37  ((A String) (B Int) (C Int) (D Int) ) String (str.substr A  B  (+ C  D )))
(define-fun func38  ((A String) (B Int) (C Int) (D Int) ) String (str.substr A  B  (- C  D )))
(define-fun func39  ((A String) (B Int) ) String (str.substr A  B  3 ))
(define-fun func40  ((A String) (B Int) ) String (str.substr A  B  (str.len A )))
(define-fun func41  ((A String) (B Int) (C String) (D Int) ) String (str.substr A  B  (str.indexof A  C  D )))
(define-fun func42  ((A String) (B Int) (C String) ) String (str.substr A  B  (str.indexof A  C  0 )))
(define-fun func43  ((A String) (B Int) (C String) (D String) (E Int) ) String (str.substr A  B  (str.indexof C  D  E )))
(define-fun func44  ((A String) (B Int) (C String) (D String) ) String (str.substr A  B  (str.indexof C  D  1 )))
(define-fun func45  ((A String) (B Int) (C String) (D String) ) String (str.substr A  B  (str.indexof C  D  0 )))
(define-fun func46  ((A String) (B Int) (C Int) (D String) ) String (str.substr A  (+ B  C ) (str.len D )))
(define-fun func47  ((A String) (B Int) (C String) ) String (str.substr A  B  (str.len C )))
(define-fun func48  ((A String) (B String) ) Bool (str.contains A  B ))
(define-fun func49  ((A String) ) String (str.at A  0 ))
(define-fun func50  ((A String) (B String) ) Int (str.indexof A  B  1 ))
(define-fun func51  ((A String) (B String) ) Int (str.indexof A  B  0 ))
(synth-fun f ((name String)) String
( (Start String (ntString))
 (ntString String (
	name " " 
	(func0 ntString ntString ntString ntString ntString)
	(func1 ntString ntString ntString ntString)
	(func2 ntString ntString ntString)
	(func3 ntString ntString ntString ntString)
	(func5 ntString ntString ntInt)
	(func6 ntString ntString)
	(func7 ntString ntString ntString ntString ntInt)
	(func8 ntString ntString ntString ntString ntString)
	(func19 ntString ntInt ntString)
	(func20 ntString ntInt ntString ntString ntInt)
	(func21 ntString ntInt ntString ntString)
	(func22 ntString ntInt ntInt)
	(func25 ntString ntInt ntInt ntString ntString ntInt)
	(func26 ntString ntInt ntInt ntString ntString)
	(func28 ntString ntInt ntInt)
	(func29 ntString ntInt ntInt)
	(func30 ntString ntInt)
	(func31 ntString ntInt ntInt)
	(func33 ntString ntString)
	(func34 ntString ntString ntString ntInt)
	(func35 ntString ntString ntString)
	(func37 ntString ntInt ntInt ntInt)
	(func39 ntString ntInt)
	(func40 ntString ntInt)
	(func42 ntString ntInt ntString)
	(func43 ntString ntInt ntString ntString ntInt)
	(func47 ntString ntInt ntString)
	(func49 ntString)
	(str.++ ntString ntString)
	(str.replace ntString ntString ntString)
	(str.at ntString ntInt)
	(int.to.str ntInt)
	(ite ntBool ntString ntString)
	(str.substr ntString ntInt ntInt)
))
 (ntInt Int (
	0 1 2 
	(func9 ntInt)
	(func11 ntString ntString)
	(func13 ntInt)
	(func14 ntInt ntString ntString ntInt)
	(func15 ntInt ntString ntString)
	(func16 ntInt ntString ntString)
	(func17 ntInt ntString)
	(func51 ntString ntString)
	(+ ntInt ntInt)
	(- ntInt ntInt)
	(str.len ntString)
	(str.to.int ntString)
	(ite ntBool ntInt ntInt)
))
 (ntBool Bool (
	true false
	(str.prefixof ntString ntString)
	(str.contains ntString ntString)
))
))
(constraint (= (f "Nancy FreeHafer") "Nancy"))
(constraint (= (f "Andrew Cencici") "Andrew"))
(constraint (= (f "Jan Kotas") "Jan"))
(constraint (= (f "Mariya Sergienko") "Mariya"))
(constraint (= (f "Launa Withers") "Launa"))
(constraint (= (f "Launa Withers") "Launa"))
(constraint (= (f "Launa Withers") "Launa"))
(constraint (= (f "Lakenya Edison") "Lakenya"))
(constraint (= (f "Lakenya Edison") "Lakenya"))
(constraint (= (f "Lakenya Edison") "Lakenya"))
(constraint (= (f "Brendan Hage") "Brendan"))
(constraint (= (f "Brendan Hage") "Brendan"))
(constraint (= (f "Brendan Hage") "Brendan"))
(constraint (= (f "Bradford Lango") "Bradford"))
(constraint (= (f "Bradford Lango") "Bradford"))
(constraint (= (f "Bradford Lango") "Bradford"))
(constraint (= (f "Rudolf Akiyama") "Rudolf"))
(constraint (= (f "Rudolf Akiyama") "Rudolf"))
(constraint (= (f "Rudolf Akiyama") "Rudolf"))
(constraint (= (f "Lara Constable") "Lara"))
(constraint (= (f "Lara Constable") "Lara"))
(constraint (= (f "Lara Constable") "Lara"))
(constraint (= (f "Madelaine Ghoston") "Madelaine"))
(constraint (= (f "Madelaine Ghoston") "Madelaine"))
(constraint (= (f "Madelaine Ghoston") "Madelaine"))
(constraint (= (f "Salley Hornak") "Salley"))
(constraint (= (f "Salley Hornak") "Salley"))
(constraint (= (f "Salley Hornak") "Salley"))
(constraint (= (f "Micha Junkin") "Micha"))
(constraint (= (f "Micha Junkin") "Micha"))
(constraint (= (f "Micha Junkin") "Micha"))
(constraint (= (f "Teddy Bobo") "Teddy"))
(constraint (= (f "Teddy Bobo") "Teddy"))
(constraint (= (f "Teddy Bobo") "Teddy"))
(constraint (= (f "Coralee Scalia") "Coralee"))
(constraint (= (f "Coralee Scalia") "Coralee"))
(constraint (= (f "Coralee Scalia") "Coralee"))
(constraint (= (f "Jeff Quashie") "Jeff"))
(constraint (= (f "Jeff Quashie") "Jeff"))
(constraint (= (f "Jeff Quashie") "Jeff"))
(constraint (= (f "Vena Babiarz") "Vena"))
(constraint (= (f "Vena Babiarz") "Vena"))
(constraint (= (f "Vena Babiarz") "Vena"))
(constraint (= (f "Karrie Lain") "Karrie"))
(constraint (= (f "Karrie Lain") "Karrie"))
(constraint (= (f "Karrie Lain") "Karrie"))
(constraint (= (f "Tobias Dermody") "Tobias"))
(constraint (= (f "Tobias Dermody") "Tobias"))
(constraint (= (f "Tobias Dermody") "Tobias"))
(constraint (= (f "Celsa Hopkins") "Celsa"))
(constraint (= (f "Celsa Hopkins") "Celsa"))
(constraint (= (f "Celsa Hopkins") "Celsa"))
(constraint (= (f "Kimberley Halpern") "Kimberley"))
(constraint (= (f "Kimberley Halpern") "Kimberley"))
(constraint (= (f "Kimberley Halpern") "Kimberley"))
(constraint (= (f "Phillip Rowden") "Phillip"))
(constraint (= (f "Phillip Rowden") "Phillip"))
(constraint (= (f "Phillip Rowden") "Phillip"))
(constraint (= (f "Elias Neil") "Elias"))
(constraint (= (f "Elias Neil") "Elias"))
(constraint (= (f "Elias Neil") "Elias"))
(constraint (= (f "Lashanda Cortes") "Lashanda"))
(constraint (= (f "Lashanda Cortes") "Lashanda"))
(constraint (= (f "Lashanda Cortes") "Lashanda"))
(constraint (= (f "Mackenzie Spell") "Mackenzie"))
(constraint (= (f "Mackenzie Spell") "Mackenzie"))
(constraint (= (f "Mackenzie Spell") "Mackenzie"))
(constraint (= (f "Kathlyn Eccleston") "Kathlyn"))
(constraint (= (f "Kathlyn Eccleston") "Kathlyn"))
(constraint (= (f "Kathlyn Eccleston") "Kathlyn"))
(constraint (= (f "Georgina Brescia") "Georgina"))
(constraint (= (f "Georgina Brescia") "Georgina"))
(constraint (= (f "Georgina Brescia") "Georgina"))
(constraint (= (f "Beata Miah") "Beata"))
(constraint (= (f "Beata Miah") "Beata"))
(constraint (= (f "Beata Miah") "Beata"))
(constraint (= (f "Desiree Seamons") "Desiree"))
(constraint (= (f "Desiree Seamons") "Desiree"))
(constraint (= (f "Desiree Seamons") "Desiree"))
(constraint (= (f "Jeanice Soderstrom") "Jeanice"))
(constraint (= (f "Jeanice Soderstrom") "Jeanice"))
(constraint (= (f "Jeanice Soderstrom") "Jeanice"))
(constraint (= (f "Mariel Jurgens") "Mariel"))
(constraint (= (f "Mariel Jurgens") "Mariel"))
(constraint (= (f "Mariel Jurgens") "Mariel"))
(constraint (= (f "Alida Bogle") "Alida"))
(constraint (= (f "Alida Bogle") "Alida"))
(constraint (= (f "Alida Bogle") "Alida"))
(constraint (= (f "Jacqualine Olague") "Jacqualine"))
(constraint (= (f "Jacqualine Olague") "Jacqualine"))
(constraint (= (f "Jacqualine Olague") "Jacqualine"))
(constraint (= (f "Joaquin Clasen") "Joaquin"))
(constraint (= (f "Joaquin Clasen") "Joaquin"))
(constraint (= (f "Joaquin Clasen") "Joaquin"))
(constraint (= (f "Samuel Richert") "Samuel"))
(constraint (= (f "Samuel Richert") "Samuel"))
(constraint (= (f "Samuel Richert") "Samuel"))
(constraint (= (f "Malissa Marcus") "Malissa"))
(constraint (= (f "Malissa Marcus") "Malissa"))
(constraint (= (f "Malissa Marcus") "Malissa"))
(constraint (= (f "Alaina Partida") "Alaina"))
(constraint (= (f "Alaina Partida") "Alaina"))
(constraint (= (f "Alaina Partida") "Alaina"))
(constraint (= (f "Trinidad Mulloy") "Trinidad"))
(constraint (= (f "Trinidad Mulloy") "Trinidad"))
(constraint (= (f "Trinidad Mulloy") "Trinidad"))
(constraint (= (f "Carlene Garrard") "Carlene"))
(constraint (= (f "Carlene Garrard") "Carlene"))
(constraint (= (f "Carlene Garrard") "Carlene"))
(constraint (= (f "Melodi Chism") "Melodi"))
(constraint (= (f "Melodi Chism") "Melodi"))
(constraint (= (f "Melodi Chism") "Melodi"))
(constraint (= (f "Bess Chilcott") "Bess"))
(constraint (= (f "Bess Chilcott") "Bess"))
(constraint (= (f "Bess Chilcott") "Bess"))
(constraint (= (f "Chong Aylward") "Chong"))
(constraint (= (f "Chong Aylward") "Chong"))
(constraint (= (f "Chong Aylward") "Chong"))
(constraint (= (f "Jani Ramthun") "Jani"))
(constraint (= (f "Jani Ramthun") "Jani"))
(constraint (= (f "Jani Ramthun") "Jani"))
(constraint (= (f "Jacquiline Heintz") "Jacquiline"))
(constraint (= (f "Jacquiline Heintz") "Jacquiline"))
(constraint (= (f "Jacquiline Heintz") "Jacquiline"))
(constraint (= (f "Hayley Marquess") "Hayley"))
(constraint (= (f "Hayley Marquess") "Hayley"))
(constraint (= (f "Hayley Marquess") "Hayley"))
(constraint (= (f "Andria Spagnoli") "Andria"))
(constraint (= (f "Andria Spagnoli") "Andria"))
(constraint (= (f "Andria Spagnoli") "Andria"))
(constraint (= (f "Irwin Covelli") "Irwin"))
(constraint (= (f "Irwin Covelli") "Irwin"))
(constraint (= (f "Irwin Covelli") "Irwin"))
(constraint (= (f "Gertude Montiel") "Gertude"))
(constraint (= (f "Gertude Montiel") "Gertude"))
(constraint (= (f "Gertude Montiel") "Gertude"))
(constraint (= (f "Stefany Reily") "Stefany"))
(constraint (= (f "Stefany Reily") "Stefany"))
(constraint (= (f "Stefany Reily") "Stefany"))
(constraint (= (f "Rae Mcgaughey") "Rae"))
(constraint (= (f "Rae Mcgaughey") "Rae"))
(constraint (= (f "Rae Mcgaughey") "Rae"))
(constraint (= (f "Cruz Latimore") "Cruz"))
(constraint (= (f "Cruz Latimore") "Cruz"))
(constraint (= (f "Cruz Latimore") "Cruz"))
(constraint (= (f "Maryann Casler") "Maryann"))
(constraint (= (f "Maryann Casler") "Maryann"))
(constraint (= (f "Maryann Casler") "Maryann"))
(constraint (= (f "Annalisa Gregori") "Annalisa"))
(constraint (= (f "Annalisa Gregori") "Annalisa"))
(constraint (= (f "Annalisa Gregori") "Annalisa"))
(constraint (= (f "Jenee Pannell") "Jenee"))
(constraint (= (f "Jenee Pannell") "Jenee"))
(constraint (= (f "Jenee Pannell") "Jenee"))
(constraint (= (f "Launa Withers") "Launa"))
(constraint (= (f "Lakenya Edison") "Lakenya"))
(constraint (= (f "Brendan Hage") "Brendan"))
(constraint (= (f "Bradford Lango") "Bradford"))
(constraint (= (f "Rudolf Akiyama") "Rudolf"))
(constraint (= (f "Lara Constable") "Lara"))
(constraint (= (f "Madelaine Ghoston") "Madelaine"))
(constraint (= (f "Salley Hornak") "Salley"))
(constraint (= (f "Micha Junkin") "Micha"))
(constraint (= (f "Teddy Bobo") "Teddy"))
(constraint (= (f "Coralee Scalia") "Coralee"))
(constraint (= (f "Jeff Quashie") "Jeff"))
(constraint (= (f "Vena Babiarz") "Vena"))
(constraint (= (f "Karrie Lain") "Karrie"))
(constraint (= (f "Tobias Dermody") "Tobias"))
(constraint (= (f "Celsa Hopkins") "Celsa"))
(constraint (= (f "Kimberley Halpern") "Kimberley"))
(constraint (= (f "Phillip Rowden") "Phillip"))
(constraint (= (f "Elias Neil") "Elias"))
(constraint (= (f "Lashanda Cortes") "Lashanda"))
(constraint (= (f "Mackenzie Spell") "Mackenzie"))
(constraint (= (f "Kathlyn Eccleston") "Kathlyn"))
(constraint (= (f "Georgina Brescia") "Georgina"))
(constraint (= (f "Beata Miah") "Beata"))
(constraint (= (f "Desiree Seamons") "Desiree"))
(constraint (= (f "Jeanice Soderstrom") "Jeanice"))
(constraint (= (f "Mariel Jurgens") "Mariel"))
(constraint (= (f "Alida Bogle") "Alida"))
(constraint (= (f "Jacqualine Olague") "Jacqualine"))
(constraint (= (f "Joaquin Clasen") "Joaquin"))
(constraint (= (f "Samuel Richert") "Samuel"))
(constraint (= (f "Malissa Marcus") "Malissa"))
(constraint (= (f "Alaina Partida") "Alaina"))
(constraint (= (f "Trinidad Mulloy") "Trinidad"))
(constraint (= (f "Carlene Garrard") "Carlene"))
(constraint (= (f "Melodi Chism") "Melodi"))
(constraint (= (f "Bess Chilcott") "Bess"))
(constraint (= (f "Chong Aylward") "Chong"))
(constraint (= (f "Jani Ramthun") "Jani"))
(constraint (= (f "Jacquiline Heintz") "Jacquiline"))
(constraint (= (f "Hayley Marquess") "Hayley"))
(constraint (= (f "Andria Spagnoli") "Andria"))
(constraint (= (f "Irwin Covelli") "Irwin"))
(constraint (= (f "Gertude Montiel") "Gertude"))
(constraint (= (f "Stefany Reily") "Stefany"))
(constraint (= (f "Rae Mcgaughey") "Rae"))
(constraint (= (f "Cruz Latimore") "Cruz"))
(constraint (= (f "Maryann Casler") "Maryann"))
(constraint (= (f "Annalisa Gregori") "Annalisa"))
(constraint (= (f "Jenee Pannell") "Jenee"))
(check-synth)
